[VALIDATOR STDOUT]
Type-checking pick-package
...action passes type checking.
Type-checking drop-package
...action passes type checking.
Type-checking move
...action passes type checking.
Checking plan: /home/jfan5/Safety-gen/runs/benchmark/optic/delivery_20260215_225923/delivery/optic_results/delivery_size46_packages1_seed46001.plan
Plan to validate:

Plan size: 102
1:
(move t1 c_33_34 c_33_33)
 
2:
(move t1 c_33_33 c_33_32)
 
3:
(move t1 c_33_32 c_33_31)
 
4:
(move t1 c_33_31 c_33_30)
 
5:
(move t1 c_33_30 c_33_29)
 
6:
(move t1 c_33_29 c_33_28)
 
7:
(move t1 c_33_28 c_33_27)
 
8:
(move t1 c_33_27 c_33_26)
 
9:
(move t1 c_33_26 c_33_25)
 
10:
(move t1 c_33_25 c_33_24)
 
11:
(move t1 c_33_24 c_33_23)
 
12:
(move t1 c_33_23 c_33_22)
 
13:
(pick-package t1 p1 c_33_22)
 
14:
(move t1 c_33_22 c_33_21)
 
15:
(move t1 c_33_21 c_33_20)
 
16:
(move t1 c_33_20 c_33_19)
 
17:
(move t1 c_33_19 c_33_18)
 
18:
(move t1 c_33_18 c_34_18)
 
19:
(move t1 c_34_18 c_35_18)
 
20:
(move t1 c_35_18 c_36_18)
 
21:
(move t1 c_36_18 c_37_18)
 
22:
(move t1 c_37_18 c_38_18)
 
23:
(move t1 c_38_18 c_39_18)
 
24:
(move t1 c_39_18 c_40_18)
 
25:
(move t1 c_40_18 c_41_18)
 
26:
(move t1 c_41_18 c_42_18)
 
27:
(move t1 c_42_18 c_43_18)
 
28:
(move t1 c_43_18 c_44_18)
 
29:
(move t1 c_44_18 c_45_18)
 
30:
(drop-package t1 p1 c_45_18)
 
31:
(move t1 c_45_18 c_44_18)
 
32:
(move t1 c_44_18 c_43_18)
 
33:
(move t1 c_43_18 c_42_18)
 
34:
(move t1 c_42_18 c_41_18)
 
35:
(move t1 c_41_18 c_40_18)
 
36:
(move t1 c_40_18 c_39_18)
 
37:
(move t1 c_39_18 c_38_18)
 
38:
(move t1 c_38_18 c_37_18)
 
39:
(move t1 c_37_18 c_36_18)
 
40:
(move t1 c_36_18 c_35_18)
 
41:
(move t1 c_35_18 c_34_18)
 
42:
(move t1 c_34_18 c_33_18)
 
43:
(move t1 c_33_18 c_32_18)
 
44:
(move t1 c_32_18 c_31_18)
 
45:
(move t1 c_31_18 c_30_18)
 
46:
(move t1 c_30_18 c_29_18)
 
47:
(move t1 c_29_18 c_28_18)
 
48:
(move t1 c_28_18 c_27_18)
 
49:
(move t1 c_27_18 c_26_18)
 
50:
(move t1 c_26_18 c_25_18)
 
51:
(move t1 c_25_18 c_24_18)
 
52:
(move t1 c_24_18 c_23_18)
 
53:
(move t1 c_23_18 c_22_18)
 
54:
(move t1 c_22_18 c_21_18)
 
55:
(move t1 c_21_18 c_20_18)
 
56:
(move t1 c_20_18 c_19_18)
 
57:
(move t1 c_19_18 c_18_18)
 
58:
(move t1 c_18_18 c_17_18)
 
59:
(move t1 c_17_18 c_17_19)
 
60:
(move t1 c_17_19 c_17_20)
 
61:
(move t1 c_17_20 c_17_21)
 
62:
(move t1 c_17_21 c_17_22)
 
63:
(move t1 c_17_22 c_17_23)
 
64:
(move t1 c_17_23 c_17_24)
 
65:
(move t1 c_17_24 c_17_25)
 
66:
(pick-package t1 p2 c_17_25)
 
67:
(move t1 c_17_25 c_17_24)
 
68:
(move t1 c_17_24 c_17_23)
 
69:
(move t1 c_17_23 c_17_22)
 
70:
(move t1 c_17_22 c_17_21)
 
71:
(move t1 c_17_21 c_17_20)
 
72:
(move t1 c_17_20 c_17_19)
 
73:
(move t1 c_17_19 c_17_18)
 
74:
(move t1 c_17_18 c_18_18)
 
75:
(move t1 c_18_18 c_19_18)
 
76:
(move t1 c_19_18 c_20_18)
 
77:
(move t1 c_20_18 c_21_18)
 
78:
(move t1 c_21_18 c_22_18)
 
79:
(move t1 c_22_18 c_23_18)
 
80:
(move t1 c_23_18 c_24_18)
 
81:
(move t1 c_24_18 c_25_18)
 
82:
(move t1 c_25_18 c_26_18)
 
83:
(move t1 c_26_18 c_27_18)
 
84:
(move t1 c_27_18 c_28_18)
 
85:
(move t1 c_28_18 c_29_18)
 
86:
(move t1 c_29_18 c_30_18)
 
87:
(move t1 c_30_18 c_31_18)
 
88:
(move t1 c_31_18 c_32_18)
 
89:
(move t1 c_32_18 c_33_18)
 
90:
(move t1 c_33_18 c_34_18)
 
91:
(move t1 c_34_18 c_35_18)
 
92:
(move t1 c_35_18 c_36_18)
 
93:
(move t1 c_36_18 c_37_18)
 
94:
(move t1 c_37_18 c_38_18)
 
95:
(move t1 c_38_18 c_39_18)
 
96:
(move t1 c_39_18 c_40_18)
 
97:
(move t1 c_40_18 c_41_18)
 
98:
(move t1 c_41_18 c_42_18)
 
99:
(move t1 c_42_18 c_43_18)
 
100:
(move t1 c_43_18 c_44_18)
 
101:
(move t1 c_44_18 c_45_18)
 
102:
(drop-package t1 p2 c_45_18)
 

Plan Validation details
-----------------------

Checking next happening (time 1)
Deleting (at t1 c_33_34)
Adding (at t1 c_33_33)

Checking next happening (time 2)
Deleting (at t1 c_33_33)
Adding (at t1 c_33_32)

Checking next happening (time 3)
Deleting (at t1 c_33_32)
Adding (at t1 c_33_31)

Checking next happening (time 4)
Deleting (at t1 c_33_31)
Adding (at t1 c_33_30)

Checking next happening (time 5)
Deleting (at t1 c_33_30)
Adding (at t1 c_33_29)

Checking next happening (time 6)
Deleting (at t1 c_33_29)
Adding (at t1 c_33_28)

Checking next happening (time 7)
Deleting (at t1 c_33_28)
Adding (at t1 c_33_27)

Checking next happening (time 8)
Deleting (at t1 c_33_27)
Adding (at t1 c_33_26)

Checking next happening (time 9)
Deleting (at t1 c_33_26)
Adding (at t1 c_33_25)

Checking next happening (time 10)
Deleting (at t1 c_33_25)
Adding (at t1 c_33_24)

Checking next happening (time 11)
Deleting (at t1 c_33_24)
Adding (at t1 c_33_23)

Checking next happening (time 12)
Deleting (at t1 c_33_23)
Adding (at t1 c_33_22)

Checking next happening (time 13)
Deleting (at p1 c_33_22)
Deleting (empty t1)
Adding (carrying t1 p1)

Checking next happening (time 14)
Deleting (at t1 c_33_22)
Adding (at t1 c_33_21)

Checking next happening (time 15)
Deleting (at t1 c_33_21)
Adding (at t1 c_33_20)

Checking next happening (time 16)
Deleting (at t1 c_33_20)
Adding (at t1 c_33_19)

Checking next happening (time 17)
Deleting (at t1 c_33_19)
Adding (at t1 c_33_18)

Checking next happening (time 18)
Deleting (at t1 c_33_18)
Adding (at t1 c_34_18)

Checking next happening (time 19)
Deleting (at t1 c_34_18)
Adding (at t1 c_35_18)

Checking next happening (time 20)
Deleting (at t1 c_35_18)
Adding (at t1 c_36_18)

Checking next happening (time 21)
Deleting (at t1 c_36_18)
Adding (at t1 c_37_18)

Checking next happening (time 22)
Deleting (at t1 c_37_18)
Adding (at t1 c_38_18)

Checking next happening (time 23)
Deleting (at t1 c_38_18)
Adding (at t1 c_39_18)

Checking next happening (time 24)
Deleting (at t1 c_39_18)
Adding (at t1 c_40_18)

Checking next happening (time 25)
Deleting (at t1 c_40_18)
Adding (at t1 c_41_18)

Checking next happening (time 26)
Deleting (at t1 c_41_18)
Adding (at t1 c_42_18)

Checking next happening (time 27)
Deleting (at t1 c_42_18)
Adding (at t1 c_43_18)

Checking next happening (time 28)
Deleting (at t1 c_43_18)
Adding (at t1 c_44_18)

Checking next happening (time 29)
Deleting (at t1 c_44_18)
Adding (at t1 c_45_18)

Checking next happening (time 30)
Deleting (carrying t1 p1)
Adding (empty t1)
Adding (at p1 c_45_18)

Checking next happening (time 31)
Deleting (at t1 c_45_18)
Adding (at t1 c_44_18)

Checking next happening (time 32)
Deleting (at t1 c_44_18)
Adding (at t1 c_43_18)

Checking next happening (time 33)
Deleting (at t1 c_43_18)
Adding (at t1 c_42_18)

Checking next happening (time 34)
Deleting (at t1 c_42_18)
Adding (at t1 c_41_18)

Checking next happening (time 35)
Deleting (at t1 c_41_18)
Adding (at t1 c_40_18)

Checking next happening (time 36)
Deleting (at t1 c_40_18)
Adding (at t1 c_39_18)

Checking next happening (time 37)
Deleting (at t1 c_39_18)
Adding (at t1 c_38_18)

Checking next happening (time 38)
Deleting (at t1 c_38_18)
Adding (at t1 c_37_18)

Checking next happening (time 39)
Deleting (at t1 c_37_18)
Adding (at t1 c_36_18)

Checking next happening (time 40)
Deleting (at t1 c_36_18)
Adding (at t1 c_35_18)

Checking next happening (time 41)
Deleting (at t1 c_35_18)
Adding (at t1 c_34_18)

Checking next happening (time 42)
Deleting (at t1 c_34_18)
Adding (at t1 c_33_18)

Checking next happening (time 43)
Deleting (at t1 c_33_18)
Adding (at t1 c_32_18)

Checking next happening (time 44)
Deleting (at t1 c_32_18)
Adding (at t1 c_31_18)

Checking next happening (time 45)
Deleting (at t1 c_31_18)
Adding (at t1 c_30_18)

Checking next happening (time 46)
Deleting (at t1 c_30_18)
Adding (at t1 c_29_18)

Checking next happening (time 47)
Deleting (at t1 c_29_18)
Adding (at t1 c_28_18)

Checking next happening (time 48)
Deleting (at t1 c_28_18)
Adding (at t1 c_27_18)

Checking next happening (time 49)
Deleting (at t1 c_27_18)
Adding (at t1 c_26_18)

Checking next happening (time 50)
Deleting (at t1 c_26_18)
Adding (at t1 c_25_18)

Checking next happening (time 51)
Deleting (at t1 c_25_18)
Adding (at t1 c_24_18)

Checking next happening (time 52)
Deleting (at t1 c_24_18)
Adding (at t1 c_23_18)

Checking next happening (time 53)
Deleting (at t1 c_23_18)
Adding (at t1 c_22_18)

Checking next happening (time 54)
Deleting (at t1 c_22_18)
Adding (at t1 c_21_18)

Checking next happening (time 55)
Deleting (at t1 c_21_18)
Adding (at t1 c_20_18)

Checking next happening (time 56)
Deleting (at t1 c_20_18)
Adding (at t1 c_19_18)

Checking next happening (time 57)
Deleting (at t1 c_19_18)
Adding (at t1 c_18_18)

Checking next happening (time 58)
Deleting (at t1 c_18_18)
Adding (at t1 c_17_18)

Checking next happening (time 59)
Deleting (at t1 c_17_18)
Adding (at t1 c_17_19)

Checking next happening (time 60)
Deleting (at t1 c_17_19)
Adding (at t1 c_17_20)

Checking next happening (time 61)
Deleting (at t1 c_17_20)
Adding (at t1 c_17_21)

Checking next happening (time 62)
Deleting (at t1 c_17_21)
Adding (at t1 c_17_22)

Checking next happening (time 63)
Deleting (at t1 c_17_22)
Adding (at t1 c_17_23)

Checking next happening (time 64)
Deleting (at t1 c_17_23)
Adding (at t1 c_17_24)

Checking next happening (time 65)
Deleting (at t1 c_17_24)
Adding (at t1 c_17_25)

Checking next happening (time 66)
Deleting (at p2 c_17_25)
Deleting (empty t1)
Adding (carrying t1 p2)

Checking next happening (time 67)
Deleting (at t1 c_17_25)
Adding (at t1 c_17_24)

Checking next happening (time 68)
Deleting (at t1 c_17_24)
Adding (at t1 c_17_23)

Checking next happening (time 69)
Deleting (at t1 c_17_23)
Adding (at t1 c_17_22)

Checking next happening (time 70)
Deleting (at t1 c_17_22)
Adding (at t1 c_17_21)

Checking next happening (time 71)
Deleting (at t1 c_17_21)
Adding (at t1 c_17_20)

Checking next happening (time 72)
Deleting (at t1 c_17_20)
Adding (at t1 c_17_19)

Checking next happening (time 73)
Deleting (at t1 c_17_19)
Adding (at t1 c_17_18)

Checking next happening (time 74)
Deleting (at t1 c_17_18)
Adding (at t1 c_18_18)

Checking next happening (time 75)
Deleting (at t1 c_18_18)
Adding (at t1 c_19_18)

Checking next happening (time 76)
Deleting (at t1 c_19_18)
Adding (at t1 c_20_18)

Checking next happening (time 77)
Deleting (at t1 c_20_18)
Adding (at t1 c_21_18)

Checking next happening (time 78)
Deleting (at t1 c_21_18)
Adding (at t1 c_22_18)

Checking next happening (time 79)
Deleting (at t1 c_22_18)
Adding (at t1 c_23_18)

Checking next happening (time 80)
Deleting (at t1 c_23_18)
Adding (at t1 c_24_18)

Checking next happening (time 81)
Deleting (at t1 c_24_18)
Adding (at t1 c_25_18)

Checking next happening (time 82)
Deleting (at t1 c_25_18)
Adding (at t1 c_26_18)

Checking next happening (time 83)
Deleting (at t1 c_26_18)
Adding (at t1 c_27_18)

Checking next happening (time 84)
Deleting (at t1 c_27_18)
Adding (at t1 c_28_18)

Checking next happening (time 85)
Deleting (at t1 c_28_18)
Adding (at t1 c_29_18)

Checking next happening (time 86)
Deleting (at t1 c_29_18)
Adding (at t1 c_30_18)

Checking next happening (time 87)
Deleting (at t1 c_30_18)
Adding (at t1 c_31_18)

Checking next happening (time 88)
Deleting (at t1 c_31_18)
Adding (at t1 c_32_18)

Checking next happening (time 89)
Deleting (at t1 c_32_18)
Adding (at t1 c_33_18)

Checking next happening (time 90)
Deleting (at t1 c_33_18)
Adding (at t1 c_34_18)

Checking next happening (time 91)
Deleting (at t1 c_34_18)
Adding (at t1 c_35_18)

Checking next happening (time 92)
Deleting (at t1 c_35_18)
Adding (at t1 c_36_18)

Checking next happening (time 93)
Deleting (at t1 c_36_18)
Adding (at t1 c_37_18)

Checking next happening (time 94)
Deleting (at t1 c_37_18)
Adding (at t1 c_38_18)

Checking next happening (time 95)
Deleting (at t1 c_38_18)
Adding (at t1 c_39_18)

Checking next happening (time 96)
Deleting (at t1 c_39_18)
Adding (at t1 c_40_18)

Checking next happening (time 97)
Deleting (at t1 c_40_18)
Adding (at t1 c_41_18)

Checking next happening (time 98)
Deleting (at t1 c_41_18)
Adding (at t1 c_42_18)

Checking next happening (time 99)
Deleting (at t1 c_42_18)
Adding (at t1 c_43_18)

Checking next happening (time 100)
Deleting (at t1 c_43_18)
Adding (at t1 c_44_18)

Checking next happening (time 101)
Deleting (at t1 c_44_18)
Adding (at t1 c_45_18)

Checking next happening (time 102)
Deleting (carrying t1 p2)
Adding (empty t1)
Adding (at p2 c_45_18)
Plan executed successfully - checking goal
Plan valid
Final value: 102 

Successful plans:
Value: 102
 /home/jfan5/Safety-gen/runs/benchmark/optic/delivery_20260215_225923/delivery/optic_results/delivery_size46_packages1_seed46001.plan 102
